--- Job tut_2_1_wk6.gms Start 02/26/20 14:28:56 30.1.0 re01a340 DEX-DEG x86 64bit/Mac OS X
--- GAMS Parameters defined
    Input /Users/victor_medina/OneDrive - University of Edinburgh/Tutorials/BUST10134/wk6/tut_2_1_wk6.gms
    PageSize 0
    ScrDir /Users/victor_medina/OneDrive - University of Edinburgh/Tutorials/BUST10134/wk6/225a/
    SysDir /Applications/GAMS30.1/GAMS Terminal.app/Contents/MacOS/
    LogOption 3
    ErrMsg 1
    ErrorLog 99
    IDE 1
    LstTitleLeftAligned 1
GAMS 30.1.0   Copyright (C) 1987-2020 GAMS Development. All rights reserved
Licensee: Course License Advanced Analytics with MathematG190618/0001AO-GEN
          The University of Edinburgh - Business School               DCE66
          Course license for use within the course and related course work
--- Starting compilation
--- tut_2_1_wk6.gms(27) 3 Mb
--- . table_const.csv(5) 3 Mb
--- tut_2_1_wk6.gms(65) 3 Mb
--- Starting execution: elapsed 0:00:00.023
--- Generating LP model prob_1
--- tut_2_1_wk6.gms(54) 4 Mb
---   5 rows  4 columns  16 non-zeroes
--- Executing CPLEX: elapsed 0:00:00.049
IBM ILOG CPLEX   30.1.0 re01a340 Released Jan 10, 2020 DEG x86 64bit/Mac OS X 
--- GAMS/Cplex licensed for continuous and discrete problems.
Cplex 12.10.0.0
Reading data...
Starting Cplex...
Space for names approximately 0.00 Mb
Use option 'names no' to turn use of names off
Version identifier: 12.10.0.0 | 2019-11-26 | 843d4de
CPXPARAM_Advance                                 0
CPXPARAM_Simplex_Display                         2
CPXPARAM_Threads                                 1
CPXPARAM_Parallel                                1
CPXPARAM_Simplex_Limits_Iterations               2000000000
CPXPARAM_TimeLimit                               1000
CPXPARAM_Tune_TimeLimit                          200
Tried aggregator 1 time.
LP Presolve eliminated 1 rows and 1 columns.
Reduced LP has 4 rows, 3 columns, and 12 nonzeros.
Presolve time = 0.00 sec. (0.00 ticks)
Iteration      Dual Objective            In Variable           Out Variable
     1  I            0.000000                  x(x3)       constr(c1) slack
     2              20.000000                  x(x2)       constr(c3) slack
     3              14.666667       constr(c1) slack       constr(c2) slack
LP status(1): optimal
Cplex Time: 0.01sec (det. 0.01 ticks)
Optimal solution found.
Objective :          14.666667
--- Restarting execution
--- tut_2_1_wk6.gms(54) 2 Mb
--- Reading solution for model prob_1
--- Executing after solve: elapsed 0:00:00.171
--- tut_2_1_wk6.gms(70) 3 Mb
--- Putfile results /Users/victor_medina/OneDrive - University of Edinburgh/Tutorials/BUST10134/wk6/results.txt
*** Status: Normal completion
--- Job tut_2_1_wk6.gms Stop 02/26/20 14:28:56 elapsed 0:00:00.172

